c CNF
c from Selman's wff generator
p cnf 10  45
1 10 3 0
6 -9 10 0
9 3 7 0
6 -8 3 0
9 8 -4 0
-6 2 -9 0
-5 -1 9 0
9 -2 10 0
8 -5 6 0
-6 -5 10 0
6 5 3 0
2 -9 5 0
3 -7 5 0
-2 -7 5 0
-9 2 6 0
-9 7 -2 0
2 -10 -3 0
-6 5 8 0
6 -8 -4 0
-3 1 2 0
-7 4 -8 0
10 -5 -4 0
-5 -4 7 0
4 -10 -6 0
4 10 -1 0
5 9 6 0
-8 -4 1 0
3 -5 -1 0
1 -8 -9 0
4 9 -10 0
-5 2 -4 0
6 -9 8 0
-5 -1 3 0
-10 -9 -2 0
6 7 -8 0
8 9 4 0
3 -5 -9 0
-7 8 -10 0
6 7 -3 0
-8 -9 4 0
6 -2 9 0
-2 -1 -9 0
7 -3 9 0
4 -5 -9 0
10 9 2 0
